c preprocessed version of 1awd_graph, 89 vertices, 1080 edges
p td 89 1080
87 88
86 88
86 87
85 88
85 87
85 86
84 88
84 87
84 86
84 85
83 87
83 86
83 85
83 84
82 86
82 85
82 84
82 83
81 84
81 83
81 82
80 87
80 86
80 85
80 83
80 82
80 81
79 83
79 82
79 81
79 80
78 83
78 81
78 80
78 79
77 81
77 80
77 79
77 78
76 79
76 78
76 77
75 79
75 78
75 77
75 76
74 77
74 76
74 75
73 81
73 79
73 78
73 77
73 76
73 75
73 74
72 79
72 77
72 74
72 73
71 81
71 79
71 77
71 75
71 74
71 73
71 72
70 72
70 71
69 83
69 82
69 81
69 80
69 79
69 77
69 73
69 71
69 70
68 87
68 84
68 79
68 71
68 70
68 69
67 87
67 83
67 81
67 80
67 79
67 78
67 77
67 75
67 74
67 73
67 72
67 71
67 70
67 69
67 68
66 88
66 87
66 86
66 85
66 84
66 83
66 81
66 80
66 79
66 71
66 70
66 69
66 68
66 67
65 87
65 86
65 83
65 80
65 79
65 77
65 71
65 67
65 66
64 87
64 86
64 83
64 66
64 65
63 66
63 65
63 64
62 87
62 79
62 71
62 70
62 68
62 67
62 66
62 65
62 64
62 63
61 88
61 87
61 86
61 84
61 83
61 80
61 71
61 68
61 67
61 66
61 65
61 64
61 63
61 62
60 87
60 66
60 64
60 63
60 62
60 61
59 64
59 63
59 62
59 61
59 60
58 87
58 68
58 66
58 64
58 63
58 62
58 61
58 60
58 59
57 88
57 87
57 86
57 84
57 83
57 79
57 71
57 70
57 69
57 68
57 67
57 66
57 64
57 63
57 62
57 61
57 60
57 59
57 58
56 88
56 87
56 84
56 70
56 68
56 67
56 66
56 62
56 61
56 58
56 57
55 70
55 68
55 62
55 59
55 58
55 57
55 56
54 87
54 79
54 77
54 71
54 70
54 69
54 68
54 67
54 66
54 62
54 61
54 59
54 58
54 57
54 56
54 55
53 72
53 71
53 70
53 55
53 54
52 74
52 72
52 71
52 70
52 62
52 59
52 57
52 55
52 54
52 53
51 81
51 79
51 77
51 74
51 73
51 72
51 71
51 70
51 69
51 68
51 67
51 66
51 65
51 62
51 61
51 59
51 57
51 56
51 55
51 54
51 53
51 52
50 77
50 75
50 74
50 73
50 72
50 71
50 70
50 67
50 62
50 53
50 52
50 51
49 81
49 79
49 78
49 77
49 76
49 75
49 74
49 73
49 72
49 71
49 70
49 69
49 68
49 67
49 66
49 65
49 62
49 61
49 57
49 54
49 52
49 51
49 50
48 79
48 77
48 76
48 75
48 74
48 73
48 71
48 67
48 65
48 62
48 52
48 51
48 50
48 49
47 79
47 78
47 77
47 76
47 75
47 74
47 73
47 71
47 67
47 49
47 48
46 80
46 79
46 78
46 77
46 76
46 75
46 73
46 65
46 49
46 48
46 47
45 86
45 83
45 80
45 79
45 78
45 77
45 67
45 66
45 65
45 64
45 49
45 47
45 46
44 83
44 81
44 80
44 79
44 78
44 77
44 75
44 74
44 73
44 72
44 71
44 69
44 68
44 67
44 66
44 65
44 63
44 62
44 61
44 57
44 54
44 51
44 50
44 49
44 48
44 47
44 46
44 45
43 87
43 86
43 85
43 84
43 83
43 82
43 81
43 80
43 79
43 78
43 77
43 69
43 68
43 67
43 66
43 65
43 64
43 61
43 57
43 49
43 46
43 45
43 44
42 87
42 86
42 83
42 82
42 81
42 80
42 79
42 78
42 77
42 73
42 71
42 70
42 69
42 68
42 67
42 66
42 65
42 62
42 61
42 57
42 54
42 51
42 49
42 47
42 45
42 44
42 43
41 88
41 87
41 86
41 84
41 83
41 82
41 81
41 80
41 79
41 71
41 70
41 69
41 68
41 67
41 66
41 65
41 64
41 62
41 61
41 57
41 56
41 54
41 51
41 49
41 44
41 43
41 42
40 88
40 87
40 85
40 84
40 82
40 81
40 69
40 68
40 57
40 56
40 54
40 41
39 88
39 87
39 86
39 85
39 84
39 83
39 82
39 70
39 69
39 68
39 67
39 66
39 62
39 61
39 58
39 57
39 56
39 55
39 54
39 51
39 43
39 42
39 41
39 40
38 70
38 68
38 57
38 56
38 55
38 54
38 53
38 39
37 72
37 71
37 70
37 68
37 57
37 56
37 55
37 54
37 53
37 52
37 51
37 50
37 49
37 41
37 39
37 38
36 70
36 55
36 54
36 53
36 38
36 37
35 70
35 69
35 53
35 40
35 38
35 37
35 36
34 84
34 40
34 39
34 38
34 35
33 82
33 81
33 79
33 70
33 69
33 42
33 40
33 35
33 34
32 85
32 84
32 82
32 81
32 69
32 41
32 40
32 39
32 35
32 34
32 33
31 83
31 82
31 81
31 80
31 79
31 77
31 73
31 71
31 69
31 68
31 67
31 51
31 49
31 44
31 42
31 41
31 40
31 35
31 33
31 32
30 82
30 81
30 40
30 33
30 32
30 31
29 82
29 81
29 79
29 69
29 42
29 33
29 32
29 31
29 30
28 31
28 30
28 29
27 81
27 77
27 69
27 31
27 29
27 28
26 29
26 28
26 27
25 69
25 35
25 33
25 32
25 31
25 30
25 29
25 28
25 27
25 26
24 82
24 81
24 79
24 77
24 73
24 71
24 69
24 67
24 49
24 44
24 42
24 35
24 33
24 32
24 31
24 30
24 29
24 28
24 27
24 26
24 25
23 81
23 79
23 77
23 73
23 69
23 49
23 42
23 31
23 29
23 27
23 26
23 25
23 24
22 72
22 70
22 69
22 53
22 37
22 35
22 33
22 31
22 26
22 25
22 24
22 23
21 82
21 81
21 79
21 77
21 73
21 71
21 70
21 69
21 68
21 67
21 51
21 49
21 42
21 41
21 40
21 35
21 34
21 33
21 32
21 31
21 30
21 29
21 26
21 25
21 24
21 23
21 22
20 82
20 81
20 80
20 79
20 78
20 77
20 76
20 75
20 74
20 73
20 72
20 71
20 70
20 69
20 68
20 67
20 54
20 51
20 50
20 49
20 48
20 47
20 44
20 42
20 33
20 31
20 29
20 27
20 25
20 24
20 23
20 22
20 21
19 77
19 73
19 72
19 71
19 70
19 69
19 67
19 53
19 52
19 51
19 50
19 49
19 37
19 36
19 35
19 33
19 31
19 26
19 25
19 24
19 23
19 22
19 21
19 20
18 73
18 72
18 27
18 26
18 25
18 23
18 22
18 20
18 19
17 74
17 72
17 52
17 50
17 26
17 23
17 22
17 19
17 18
16 76
16 75
16 74
16 73
16 72
16 50
16 48
16 23
16 18
16 17
15 73
15 72
15 27
15 26
15 23
15 22
15 18
15 17
15 16
14 76
14 27
14 26
14 24
14 23
14 20
14 18
14 16
14 15
13 81
13 79
13 78
13 77
13 73
13 71
13 69
13 67
13 49
13 42
13 31
13 30
13 29
13 28
13 27
13 26
13 25
13 24
13 23
13 21
13 20
13 18
13 14
12 78
12 77
12 76
12 47
12 46
12 45
12 29
12 27
12 24
12 20
12 14
12 13
11 82
11 81
11 79
11 78
11 77
11 73
11 69
11 42
11 31
11 30
11 29
11 28
11 27
11 25
11 24
11 23
11 21
11 20
11 14
11 13
11 12
10 81
10 80
10 79
10 78
10 76
10 46
10 45
10 43
10 29
10 24
10 13
10 12
10 11
9 29
9 12
9 11
9 10
8 82
8 81
8 32
8 31
8 30
8 29
8 28
8 24
8 13
8 11
8 10
8 9
7 86
7 85
7 84
7 83
7 82
7 81
7 80
7 32
7 31
7 30
7 29
7 11
7 9
7 8
6 83
6 82
6 81
6 80
6 79
6 78
6 77
6 69
6 67
6 42
6 33
6 32
6 31
6 30
6 29
6 27
6 24
6 23
6 21
6 20
6 13
6 11
6 10
6 9
6 8
6 7
5 86
5 83
5 82
5 81
5 80
5 79
5 78
5 69
5 46
5 45
5 43
5 31
5 29
5 24
5 13
5 12
5 11
5 10
5 9
5 7
5 6
4 83
4 82
4 81
4 80
4 79
4 78
4 77
4 73
4 71
4 69
4 67
4 51
4 49
4 44
4 43
4 42
4 33
4 32
4 31
4 30
4 29
4 28
4 27
4 25
4 24
4 23
4 21
4 20
4 14
4 13
4 12
4 11
4 10
4 9
4 8
4 7
4 6
4 5
3 81
3 80
3 79
3 78
3 77
3 76
3 73
3 47
3 46
3 45
3 42
3 29
3 24
3 20
3 14
3 13
3 12
3 11
3 10
3 9
3 6
3 5
3 4
2 81
2 80
2 79
2 78
2 77
2 76
2 75
2 74
2 73
2 72
2 71
2 69
2 67
2 51
2 49
2 48
2 47
2 46
2 45
2 44
2 42
2 31
2 29
2 27
2 26
2 24
2 23
2 22
2 21
2 20
2 19
2 18
2 16
2 14
2 13
2 12
2 11
2 10
2 6
2 5
2 4
2 3
1 79
1 78
1 77
1 76
1 75
1 73
1 47
1 46
1 27
1 20
1 14
1 13
1 12
1 11
1 10
1 4
1 3
1 2
0 79
0 77
0 76
0 75
0 74
0 73
0 72
0 71
0 69
0 67
0 49
0 48
0 47
0 44
0 42
0 24
0 23
0 20
0 18
0 17
0 16
0 15
0 14
0 13
0 12
0 4
0 3
0 2
0 1
